10J3M/DAT/10J3MUTX-3.dat
10 3
24.1158 4.9108
49.4335 7.0309
49.5418 7.0386
46.4559 6.8159
29.3757 5.4199
16.7914 4.0977
21.4519 4.6316
42.0928 6.4879
27.0296 5.199
20.9544 4.5776
14.0525