10J3M/SOL/10J3MUTX-3.sol
solution status: optimal solution found
objective value:                     56.8651117411574
x#1#2                                               1 	(obj:0)
x#3#2                               0.616373782833695 	(obj:0)
x#3#3                               0.383626217166305 	(obj:0)
x#6#1                               0.711270413144999 	(obj:0)
x#6#2                               0.288729586855001 	(obj:0)
x#7#3                               0.402782000608088 	(obj:0)
x#8#1                               0.411938052616469 	(obj:0)
x#8#3                               0.588061947383531 	(obj:0)
x#9#1                                               1 	(obj:0)
x#10#2                              0.196532597238049 	(obj:0)
x#10#3                              0.803467402761951 	(obj:0)
z                                    56.8651117411574 	(obj:1)
